
&input
 directory='./',
 prefix='GEOS',
 year=2009,
 month=08,
 day=25,
 hour=00,
 layerPressureThicknessName="DELP",
 modelTopPressure=1.,
/
