&input
 directory='./',
 prefix='GEOS',
 year=2009,
 month=08,
 day=25,
 hour=00,
 layerPressureThicknessName='DELP',
 layerTemperatureName='TT',
 layerSpecificHumidityName='SPECHUMD',
 soilHeightName='SOILHGT',
 modelTopPressure=1.,
/